results_rootrelaxation/bin012_090_045.srr.sol
solution status: optimal solution found
objective value:                                   33
_var659_                            0.583333333333334 	(obj:2)
_var665_                                         0.25 	(obj:2)
_var667_                            0.166666666666667 	(obj:3)
_var682_                            0.416666666666667 	(obj:3)
_var684_                            0.166666666666667 	(obj:5)
_var695_                                          0.5 	(obj:5)
_var696_                            0.416666666666667 	(obj:2)
_var697_                           0.0833333333333331 	(obj:3)
_var699_                            0.416666666666667 	(obj:4)
_var700_                           0.0833333333333332 	(obj:3)
_var708_                                         0.25 	(obj:3)
_var712_                            0.416666666666667 	(obj:4)
_var719_                                          0.5 	(obj:3)
_var723_                            0.583333333333333 	(obj:4)
_var733_                            0.083333333333333 	(obj:3)
_var738_                                         0.75 	(obj:2)
_var740_                            0.416666666666667 	(obj:2)
_var742_                            0.166666666666667 	(obj:2)
_var749_                                         0.25 	(obj:2)
_var754_                           0.0833333333333337 	(obj:4)
_var757_                            0.416666666666667 	(obj:3)
_var759_                            0.166666666666667 	(obj:3)
_var763_                           0.0833333333333336 	(obj:3)
_var764_                           0.0833333333333331 	(obj:4)
_var773_                           0.0833333333333335 	(obj:3)
_var774_                            0.333333333333333 	(obj:2)
_var778_                                         0.25 	(obj:3)
_var780_                            0.166666666666667 	(obj:3)
_var790_                            0.416666666666666 	(obj:2)
_var796_                            0.166666666666667 	(obj:2)
_var798_                            0.333333333333333 	(obj:3)
_var800_                            0.333333333333334 	(obj:3)
_var805_                            0.166666666666667 	(obj:2)
_var807_                            0.416666666666667 	(obj:4)
_var811_                            0.249999999999999 	(obj:3)
_var812_                                         0.25 	(obj:5)
_var815_                           0.0833333333333332 	(obj:2)
_var817_                            0.333333333333333 	(obj:3)
_var821_                           0.0833333333333328 	(obj:5)
