results_rootrelaxation/bin012_090_045.srr.log
SCIP version 8.0.3.5 [precision: 8 byte] [memory: block] [mode: optimized] [LP solver: Soplex 6.0.1.3] [GitHash: 438792519e]
Copyright (c) 2002-2023 Zuse Institute Berlin (ZIB)

External libraries: 
  Readline 8.1         GNU library for command line editing (gnu.org/s/readline)
  Soplex 6.0.1.3       Linear Programming Solver developed at Zuse Institute Berlin (soplex.zib.de) [GitHash: 713be0fe]
  CppAD 20180000.0     Algorithmic Differentiation of C++ algorithms developed by B. Bell (github.com/coin-or/CppAD)
  ZLIB 1.2.11          General purpose compression library by J. Gailly and M. Adler (zlib.net)
  bliss 0.77           Computing Graph Automorphism Groups by T. Junttila and P. Kaski (www.tcs.hut.fi/Software/bliss/)

user parameter file <scip.set> not found - using default parameters

srr/relaxation = TRUE

read problem <instances/bin012_090_045.srr>
============

Original problem: 
original problem has 0 variables (0 bin, 0 int, 0 impl, 0 cont) and 77 constraints

presolving:
presolving (1 rounds: 1 fast, 1 medium, 1 exhaustive):
 0 deleted vars, 0 deleted constraints, 0 added constraints, 0 tightened bounds, 0 added holes, 0 changed sides, 0 changed coefficients
 0 implications, 0 cliques
presolved problem has 0 variables (0 bin, 0 int, 0 impl, 0 cont) and 77 constraints
     77 constraints of type <linear>
Presolving Time: 0.00

 time | node  | left  |LP iter|LP it/n|mem/heur|mdpt |vars |cons |rows |cuts |sepa|confs|strbr|  dualbound   | primalbound  |  gap   | compl. 
  0.0s|     1 |     0 |     1 |     - |   710k |   0 |   1 |  77 |  77 |   0 |  0 |   0 |   0 |      --      |      --      |    Inf | unknown
r 0.0s|     1 |     0 |   698 |     - |simplero|   0 | 619 |  77 |  77 |   0 |  0 |   0 |   0 |      --      | 4.649215e+01 |    Inf | unknown
r 0.0s|     1 |     0 |   712 |     - |simplero|   0 | 630 |  77 |  77 |   0 |  0 |   0 |   0 |      --      | 4.585364e+01 |    Inf | unknown
r 0.0s|     1 |     0 |   736 |     - |simplero|   0 | 641 |  77 |  77 |   0 |  0 |   0 |   0 |      --      | 4.535850e+01 |    Inf | unknown
r 0.0s|     1 |     0 |   774 |     - |simplero|   0 | 652 |  77 |  77 |   0 |  0 |   0 |   0 |      --      | 4.484271e+01 |    Inf | unknown
r 0.1s|     1 |     0 |   809 |     - |simplero|   0 | 663 |  77 |  77 |   0 |  0 |   0 |   0 |      --      | 4.400042e+01 |    Inf | unknown
r 0.1s|     1 |     0 |   839 |     - |simplero|   0 | 663 |  77 |  77 |   0 |  0 |   0 |   0 |      --      | 4.384192e+01 |    Inf | unknown
r 0.1s|     1 |     0 |   911 |     - |simplero|   0 | 674 |  77 |  77 |   0 |  0 |   0 |   0 |      --      | 4.142796e+01 |    Inf | unknown
r 0.1s|     1 |     0 |   914 |     - |simplero|   0 | 674 |  77 |  77 |   0 |  0 |   0 |   0 |      --      | 4.142328e+01 |    Inf | unknown
r 0.1s|     1 |     0 |   970 |     - |simplero|   0 | 685 |  77 |  77 |   0 |  0 |   0 |   0 |      --      | 4.024401e+01 |    Inf | unknown
r 0.1s|     1 |     0 |  1010 |     - |simplero|   0 | 696 |  77 |  77 |   0 |  0 |   0 |   0 |      --      | 3.923963e+01 |    Inf | unknown
r 0.1s|     1 |     0 |  1036 |     - |simplero|   0 | 696 |  77 |  77 |   0 |  0 |   0 |   0 |      --      | 3.898521e+01 |    Inf | unknown
r 0.1s|     1 |     0 |  1039 |     - |simplero|   0 | 696 |  77 |  77 |   0 |  0 |   0 |   0 |      --      | 3.897046e+01 |    Inf | unknown
r 0.1s|     1 |     0 |  1042 |     - |simplero|   0 | 696 |  77 |  77 |   0 |  0 |   0 |   0 |      --      | 3.896801e+01 |    Inf | unknown
r 0.1s|     1 |     0 |  1091 |     - |simplero|   0 | 707 |  77 |  77 |   0 |  0 |   0 |   0 |      --      | 3.802500e+01 |    Inf | unknown
 time | node  | left  |LP iter|LP it/n|mem/heur|mdpt |vars |cons |rows |cuts |sepa|confs|strbr|  dualbound   | primalbound  |  gap   | compl. 
r 0.1s|     1 |     0 |  1103 |     - |simplero|   0 | 707 |  77 |  77 |   0 |  0 |   0 |   0 |      --      | 3.798736e+01 |    Inf | unknown
r 0.1s|     1 |     0 |  1141 |     - |simplero|   0 | 718 |  77 |  77 |   0 |  0 |   0 |   0 |      --      | 3.722680e+01 |    Inf | unknown
r 0.1s|     1 |     0 |  1164 |     - |simplero|   0 | 718 |  77 |  77 |   0 |  0 |   0 |   0 |      --      | 3.709445e+01 |    Inf | unknown
r 0.1s|     1 |     0 |  1166 |     - |simplero|   0 | 718 |  77 |  77 |   0 |  0 |   0 |   0 |      --      | 3.709301e+01 |    Inf | unknown
r 0.1s|     1 |     0 |  1212 |     - |simplero|   0 | 729 |  77 |  77 |   0 |  0 |   0 |   0 |      --      | 3.632956e+01 |    Inf | unknown
r 0.1s|     1 |     0 |  1232 |     - |simplero|   0 | 729 |  77 |  77 |   0 |  0 |   0 |   0 |      --      | 3.618709e+01 |    Inf | unknown
r 0.1s|     1 |     0 |  1264 |     - |simplero|   0 | 740 |  77 |  77 |   0 |  0 |   0 |   0 |      --      | 3.548010e+01 |    Inf | unknown
r 0.1s|     1 |     0 |  1292 |     - |simplero|   0 | 740 |  77 |  77 |   0 |  0 |   0 |   0 |      --      | 3.528197e+01 |    Inf | unknown
r 0.1s|     1 |     0 |  1307 |     - |simplero|   0 | 740 |  77 |  77 |   0 |  0 |   0 |   0 |      --      | 3.522946e+01 |    Inf | unknown
r 0.1s|     1 |     0 |  1359 |     - |simplero|   0 | 751 |  77 |  77 |   0 |  0 |   0 |   0 |      --      | 3.468615e+01 |    Inf | unknown
r 0.1s|     1 |     0 |  1364 |     - |simplero|   0 | 751 |  77 |  77 |   0 |  0 |   0 |   0 |      --      | 3.468579e+01 |    Inf | unknown
r 0.1s|     1 |     0 |  1401 |     - |simplero|   0 | 762 |  77 |  77 |   0 |  0 |   0 |   0 |      --      | 3.436345e+01 |    Inf | unknown
r 0.1s|     1 |     0 |  1416 |     - |simplero|   0 | 762 |  77 |  77 |   0 |  0 |   0 |   0 |      --      | 3.432234e+01 |    Inf | unknown
r 0.1s|     1 |     0 |  1421 |     - |simplero|   0 | 762 |  77 |  77 |   0 |  0 |   0 |   0 |      --      | 3.431934e+01 |    Inf | unknown
r 0.1s|     1 |     0 |  1423 |     - |simplero|   0 | 762 |  77 |  77 |   0 |  0 |   0 |   0 |      --      | 3.431925e+01 |    Inf | unknown
 time | node  | left  |LP iter|LP it/n|mem/heur|mdpt |vars |cons |rows |cuts |sepa|confs|strbr|  dualbound   | primalbound  |  gap   | compl. 
r 0.1s|     1 |     0 |  1450 |     - |simplero|   0 | 772 |  77 |  77 |   0 |  0 |   0 |   0 |      --      | 3.396513e+01 |    Inf | unknown
r 0.1s|     1 |     0 |  1456 |     - |simplero|   0 | 772 |  77 |  77 |   0 |  0 |   0 |   0 |      --      | 3.395837e+01 |    Inf | unknown
r 0.1s|     1 |     0 |  1460 |     - |simplero|   0 | 772 |  77 |  77 |   0 |  0 |   0 |   0 |      --      | 3.395174e+01 |    Inf | unknown
r 0.1s|     1 |     0 |  1494 |     - |simplero|   0 | 783 |  77 |  77 |   0 |  0 |   0 |   0 |      --      | 3.376397e+01 |    Inf | unknown
r 0.1s|     1 |     0 |  1527 |     - |simplero|   0 | 783 |  77 |  77 |   0 |  0 |   0 |   0 |      --      | 3.364672e+01 |    Inf | unknown
  0.1s|     1 |     0 |  1531 |     - |  3600k |   0 | 783 |  77 |  77 |   0 |  0 |   0 |   0 |      --      | 3.364672e+01 |    Inf | unknown
r 0.1s|     1 |     0 |  1531 |     - |simplero|   0 | 783 |  77 |  77 |   0 |  0 |   0 |   0 |      --      | 3.364439e+01 |    Inf | unknown
r 0.1s|     1 |     0 |  1574 |     - |simplero|   0 | 794 |  77 |  77 |   0 |  0 |   0 |   0 |      --      | 3.348562e+01 |    Inf | unknown
r 0.1s|     1 |     0 |  1583 |     - |simplero|   0 | 794 |  77 |  77 |   0 |  0 |   0 |   0 |      --      | 3.347324e+01 |    Inf | unknown
r 0.1s|     1 |     0 |  1584 |     - |simplero|   0 | 794 |  77 |  77 |   0 |  0 |   0 |   0 |      --      | 3.347305e+01 |    Inf | unknown
r 0.1s|     1 |     0 |  1610 |     - |simplero|   0 | 805 |  77 |  77 |   0 |  0 |   0 |   0 |      --      | 3.337374e+01 |    Inf | unknown
r 0.1s|     1 |     0 |  1615 |     - |simplero|   0 | 805 |  77 |  77 |   0 |  0 |   0 |   0 |      --      | 3.336261e+01 |    Inf | unknown
r 0.1s|     1 |     0 |  1617 |     - |simplero|   0 | 805 |  77 |  77 |   0 |  0 |   0 |   0 |      --      | 3.336209e+01 |    Inf | unknown
r 0.1s|     1 |     0 |  1643 |     - |simplero|   0 | 813 |  77 |  77 |   0 |  0 |   0 |   0 |      --      | 3.319828e+01 |    Inf | unknown
r 0.1s|     1 |     0 |  1646 |     - |simplero|   0 | 813 |  77 |  77 |   0 |  0 |   0 |   0 |      --      | 3.318797e+01 |    Inf | unknown
 time | node  | left  |LP iter|LP it/n|mem/heur|mdpt |vars |cons |rows |cuts |sepa|confs|strbr|  dualbound   | primalbound  |  gap   | compl. 
r 0.1s|     1 |     0 |  1676 |     - |simplero|   0 | 822 |  77 |  77 |   0 |  0 |   0 |   0 |      --      | 3.300000e+01 |    Inf | unknown
  0.1s|     1 |     0 |  1722 |     - |  4225k |   0 | 841 |  77 |  77 |   0 |  0 |   0 |   0 | 3.300000e+01 | 3.300000e+01 |   0.00%| unknown
  0.1s|     1 |     0 |  1722 |     - |  4225k |   0 | 841 |  77 |  77 |   0 |  0 |   0 |   0 | 3.300000e+01 | 3.300000e+01 |   0.00%| unknown

SCIP Status        : problem is solved [optimal solution found]
Solving Time (sec) : 0.10
Solving Nodes      : 1
Primal Bound       : +3.30000000000000e+01 (44 solutions)
Dual Bound         : +3.30000000000000e+01
Gap                : 0.00 %

written transformed problem to file <results_rootrelaxation/bin012_090_045.srr.lp>
written transformed problem to file <results_rootrelaxation/bin012_090_045.srr.cip>

written solution information to file <results_rootrelaxation/bin012_090_045.srr.sol>



